Version identifier: 22.1.0.0 | 2022-03-09 | 1a383f8ce
CPXPARAM_Threads                                 1
CPXPARAM_MIP_Strategy_VariableSelect             3
CPXPARAM_TimeLimit                               599.99998200300001
1 of 1 MIP starts provided solutions.
MIP start 'm1' defined initial solution with objective 1.0000.
Tried aggregator 1 time.
MIP Presolve eliminated 22 rows and 0 columns.
MIP Presolve modified 537 coefficients.
Reduced MIP has 4500 rows, 10500 columns, and 246873 nonzeros.
Reduced MIP has 10500 binaries, 0 generals, 0 SOSs, and 0 indicators.
Presolve time = 0.24 sec. (394.15 ticks)
Probing time = 0.04 sec. (32.97 ticks)
Tried aggregator 1 time.
Detecting symmetries...
MIP Presolve modified 12 coefficients.
Reduced MIP has 4500 rows, 10500 columns, and 247051 nonzeros.
Reduced MIP has 10500 binaries, 0 generals, 0 SOSs, and 0 indicators.
Presolve time = 0.25 sec. (374.17 ticks)
Probing time = 0.03 sec. (32.98 ticks)
Clique table members: 1995.
MIP emphasis: balance optimality and feasibility.
MIP search method: dynamic search.
Parallel mode: none, using 1 thread.
Root relaxation solution time = 5.10 sec. (6002.78 ticks)

        Nodes                                         Cuts/
   Node  Left     Objective  IInf  Best Integer    Best Bound    ItCnt     Gap

*     0+    0                            1.0000   125250.0000              --- 
      0     0      500.0000  2050        1.0000      500.0000     9338     --- 
*     0+    0                          263.0000      500.0000            90.11%
      0     0      500.0000   580      263.0000       Cuts: 8    12296   90.11%
      0     0      500.0000   351      263.0000      Cuts: 11    14666   90.11%
      0     0      500.0000   460      263.0000      Cuts: 82    17625   90.11%
*     0+    0                          352.0000      500.0000            42.05%
      0     0        cutoff            352.0000      500.0000    17625   42.05%
      0     0      500.0000   330      352.0000      Cuts: 13    21149   42.05%
      0     0      500.0000   275      352.0000    Cliques: 5    22079   42.05%
Detecting symmetries...
      0     0      500.0000   329      352.0000      Cuts: 87    26451   42.05%
Heuristic still looking.
Detecting symmetries...
      0     2      500.0000   264      352.0000      500.0000    26451   42.05%
Elapsed time = 237.07 sec. (243530.49 ticks, tree = 0.01 MB, solutions = 3)
      1     3      500.0000   975      352.0000      500.0000    51329   42.05%
      2     4      500.0000   843      352.0000      500.0000    59762   42.05%
      3     5      500.0000   753      352.0000      500.0000    67808   42.05%
      4     6      500.0000   826      352.0000      500.0000    72334   42.05%
      5     7      500.0000   791      352.0000      500.0000    72343   42.05%
      6     8      500.0000  1104      352.0000      500.0000    75438   42.05%
      7     9      500.0000  1510      352.0000      500.0000    77821   42.05%
      8    10      500.0000  1081      352.0000      500.0000    79007   42.05%
      9    11      500.0000  1120      352.0000      500.0000    79396   42.05%
     10    12      500.0000  1098      352.0000      500.0000    79454   42.05%
Elapsed time = 270.99 sec. (276289.86 ticks, tree = 0.29 MB, solutions = 3)
     12    14      500.0000  1018      352.0000      500.0000    80315   42.05%
     14    16      500.0000  1033      352.0000      500.0000    81676   42.05%
     16    18      500.0000  1035      352.0000      500.0000    81950   42.05%
     18    20      500.0000  1038      352.0000      500.0000    83225   42.05%
     20    22      500.0000  1042      352.0000      500.0000    85888   42.05%
     22    24      500.0000  1006      352.0000      500.0000    86154   42.05%
     23    25      500.0000   978      352.0000      500.0000    87137   42.05%
     25    27      500.0000   993      352.0000      500.0000    89138   42.05%
     27    29      500.0000   986      352.0000      500.0000    90361   42.05%
     29    31      500.0000  1050      352.0000      500.0000    92002   42.05%
Elapsed time = 293.77 sec. (297438.63 ticks, tree = 0.98 MB, solutions = 3)
     32    34      500.0000  1035      352.0000      500.0000    93605   42.05%
     34    36      500.0000   984      352.0000      500.0000    95210   42.05%
     36    38      500.0000   992      352.0000      500.0000    96859   42.05%
     38    40      500.0000  1050      352.0000      500.0000    99441   42.05%
     40    42      500.0000   997      352.0000      500.0000   100730   42.05%
     42    44      500.0000   981      352.0000      500.0000   101806   42.05%
     44    46      500.0000   987      352.0000      500.0000   105429   42.05%
     46    48      500.0000   955      352.0000      500.0000   107367   42.05%
     48    50      500.0000   957      352.0000      500.0000   110411   42.05%
     50    52      500.0000   980      352.0000      500.0000   110519   42.05%
Elapsed time = 306.91 sec. (310400.92 ticks, tree = 1.79 MB, solutions = 3)
     52    54      500.0000  1624      352.0000      500.0000   113340   42.05%
     53    55      500.0000   976      352.0000      500.0000   113352   42.05%
     56    58      500.0000  1010      352.0000      500.0000   115761   42.05%
     59    61      500.0000   993      352.0000      500.0000   116518   42.05%
*    60+   60                          367.0000      500.0000            36.24%
     60    62      500.0000   974      367.0000      500.0000   116541   36.24%
     62    64      500.0000   974      367.0000      500.0000   119286   36.24%
     64    66      500.0000   973      367.0000      500.0000   121579   36.24%
     66    68      500.0000   987      367.0000      500.0000   123417   36.24%
     68    70      500.0000   994      367.0000      500.0000   124086   36.24%
     70    72      500.0000   973      367.0000      500.0000   125241   36.24%
Elapsed time = 321.68 sec. (325043.34 ticks, tree = 2.61 MB, solutions = 4)
     72    74      500.0000   973      367.0000      500.0000   128009   36.24%
     73    75      500.0000  1271      367.0000      500.0000   129425   36.24%
     75    77      500.0000  1013      367.0000      500.0000   132639   36.24%
     77    79      500.0000  1013      367.0000      500.0000   134473   36.24%
     80    82      500.0000  1021      367.0000      500.0000   136161   36.24%
     82    84      500.0000   966      367.0000      500.0000   136532   36.24%
     84    86      500.0000   967      367.0000      500.0000   138208   36.24%
     87    89      500.0000   997      367.0000      500.0000   140207   36.24%
     90    92      500.0000  1021      367.0000      500.0000   143340   36.24%
     92    94      500.0000   960      367.0000      500.0000   145629   36.24%
Elapsed time = 334.88 sec. (337715.45 ticks, tree = 3.47 MB, solutions = 4)
     94    96      500.0000   961      367.0000      500.0000   148585   36.24%
     96    98      500.0000   974      367.0000      500.0000   150222   36.24%
     99   101      500.0000   975      367.0000      500.0000   151368   36.24%
    101   103      500.0000   981      367.0000      500.0000   153165   36.24%
    104   106      500.0000   957      367.0000      500.0000   153917   36.24%
    106   108      500.0000   957      367.0000      500.0000   156516   36.24%
    108   110      500.0000   955      367.0000      500.0000   159113   36.24%
    110   112      500.0000   951      367.0000      500.0000   160731   36.24%
    113   115      500.0000   961      367.0000      500.0000   161523   36.24%
    115   117      500.0000   979      367.0000      500.0000   164337   36.24%
Elapsed time = 348.00 sec. (350210.03 ticks, tree = 4.34 MB, solutions = 4)
    117   119      500.0000  1009      367.0000      500.0000   166810   36.24%
    119   121      500.0000   969      367.0000      500.0000   169320   36.24%
    120   122      500.0000   958      367.0000      500.0000   169324   36.24%
    122   124      500.0000  1039      367.0000      500.0000   173405   36.24%
    124   126      500.0000   972      367.0000      500.0000   176252   36.24%
    127   129      500.0000   972      367.0000      500.0000   178004   36.24%
    129   131      500.0000  1059      367.0000      500.0000   181221   36.24%
    131   133      500.0000  1123      367.0000      500.0000   183351   36.24%
    134   136      500.0000   973      367.0000      500.0000   185140   36.24%
    136   138      500.0000   967      367.0000      500.0000   187446   36.24%
Elapsed time = 362.13 sec. (363615.18 ticks, tree = 5.21 MB, solutions = 4)
    138   140      500.0000   970      367.0000      500.0000   188461   36.24%
    140   142      500.0000   969      367.0000      500.0000   190410   36.24%
    142   144      500.0000   994      367.0000      500.0000   193039   36.24%
    143   145      500.0000  1717      367.0000      500.0000   195508   36.24%
    145   147      500.0000  1055      367.0000      500.0000   198431   36.24%
    147   149      500.0000  1038      367.0000      500.0000   201182   36.24%
    150   152      500.0000  1090      367.0000      500.0000   204114   36.24%
    152   154      500.0000   991      367.0000      500.0000   206441   36.24%
    154   156      500.0000  1002      367.0000      500.0000   208817   36.24%
    156   158      500.0000   984      367.0000      500.0000   211366   36.24%
Elapsed time = 375.86 sec. (376593.21 ticks, tree = 6.00 MB, solutions = 4)
    158   160      500.0000   981      367.0000      500.0000   214246   36.24%
    159   161      500.0000  1053      367.0000      500.0000   215110   36.24%
    161   163      500.0000  1007      367.0000      500.0000   216762   36.24%
    163   165      500.0000  1013      367.0000      500.0000   218543   36.24%
    165   167      500.0000  1023      367.0000      500.0000   220694   36.24%
    167   169      500.0000  1041      367.0000      500.0000   222185   36.24%
    169   171      500.0000  1009      367.0000      500.0000   223863   36.24%
*   170+  170                          390.0000      500.0000            28.21%
    171   173      500.0000  1001      390.0000      500.0000   225710   28.21%
    173   175      500.0000  1010      390.0000      500.0000   227300   28.21%
    175   177      500.0000  1027      390.0000      500.0000   229774   28.21%
Elapsed time = 387.91 sec. (387835.55 ticks, tree = 6.71 MB, solutions = 5)
    177   179      500.0000  1016      390.0000      500.0000   231222   28.21%
    179   181      500.0000   988      390.0000      500.0000   233254   28.21%
    180   182      500.0000   975      390.0000      500.0000   233293   28.21%
    182   184      500.0000   977      390.0000      500.0000   236021   28.21%
    184   186      500.0000   976      390.0000      500.0000   237959   28.21%
    186   188      500.0000   973      390.0000      500.0000   239957   28.21%
    188   190      500.0000   972      390.0000      500.0000   241718   28.21%
    190   192      500.0000   973      390.0000      500.0000   243188   28.21%
    192   194      500.0000   966      390.0000      500.0000   245121   28.21%
    199   201      500.0000  1014      390.0000      500.0000   254415   28.21%
Elapsed time = 403.58 sec. (402176.37 ticks, tree = 7.65 MB, solutions = 5)
    206   208      500.0000   982      390.0000      500.0000   261585   28.21%
    213   215      500.0000  1001      390.0000      500.0000   269281   28.21%
    221   223      500.0000   987      390.0000      500.0000   275499   28.21%
    229   231      500.0000   987      390.0000      500.0000   280757   28.21%
    233   235      500.0000  1013      390.0000      500.0000   283824   28.21%
    240   242      500.0000  1015      390.0000      500.0000   289361   28.21%
    247   249      500.0000  1036      390.0000      500.0000   296147   28.21%
    256   258      500.0000  1037      390.0000      500.0000   302892   28.21%
    264   266      500.0000  1020      390.0000      500.0000   310385   28.21%
    271   273      500.0000  1063      390.0000      500.0000   318579   28.21%
Elapsed time = 454.61 sec. (448099.96 ticks, tree = 10.50 MB, solutions = 5)
    278   280      500.0000   998      390.0000      500.0000   326182   28.21%
    282   284      500.0000   994      390.0000      500.0000   330078   28.21%
    289   291      500.0000  1111      390.0000      500.0000   343629   28.21%
    297   299      500.0000  1066      390.0000      500.0000   355046   28.21%
    304   306      500.0000   996      390.0000      500.0000   362577   28.21%
    311   313      500.0000  1139      390.0000      500.0000   371963   28.21%
    319   321      500.0000   997      390.0000      500.0000   377364   28.21%
    320   322      500.0000  1011      390.0000      500.0000   378606   28.21%
    328   330      500.0000  1011      390.0000      500.0000   386436   28.21%
    335   337      500.0000  1009      390.0000      500.0000   392006   28.21%
Elapsed time = 500.21 sec. (489463.91 ticks, tree = 13.07 MB, solutions = 5)
    340   342      500.0000  1141      390.0000      500.0000   397592   28.21%
    348   350      500.0000  1170      390.0000      500.0000   408237   28.21%
    355   357      500.0000   994      390.0000      500.0000   414608   28.21%
    361   363      500.0000  1186      390.0000      500.0000   424098   28.21%
    368   370      500.0000   958      390.0000      500.0000   432075   28.21%
    374   376      500.0000  1088      390.0000      500.0000   443382   28.21%
    380   382      500.0000  1168      390.0000      500.0000   454128   28.21%
    386   388      500.0000  1037      390.0000      500.0000   463076   28.21%
    393   395      500.0000  1038      390.0000      500.0000   474018   28.21%
Starting limited solution polishing.
*   400+  400                          393.0000      500.0000            27.23%
*   400+  400                          397.0000      500.0000            25.94%
    400   402      500.0000   993      397.0000      500.0000   485233   25.94%
Elapsed time = 567.34 sec. (550124.39 ticks, tree = 15.63 MB, solutions = 7)
    406   408      500.0000   940      397.0000      500.0000   493274   25.94%
    413   415      500.0000  1083      397.0000      500.0000   506948   25.94%
    420   422      500.0000  1072      397.0000      500.0000   514109   25.94%
    426   428      500.0000  1126      397.0000      500.0000   522368   25.94%
    433   435      500.0000   967      397.0000      500.0000   529847   25.94%
    439   441      500.0000   969      397.0000      500.0000   540804   25.94%
    445   447      500.0000   964      397.0000      500.0000   552166   25.94%

Clique cuts applied:  42
Zero-half cuts applied:  27
Lift and project cuts applied:  1

Root node processing (before b&c):
  Real time             =  236.92 sec. (243363.49 ticks)
Sequential b&c:
  Real time             =  363.09 sec. (336591.92 ticks)
                          ------------
Total (root+branch&cut) =  600.01 sec. (579955.41 ticks)
Primal:	397
Dual:	500
Status:	Feasible
Time:	600
Sequence:
	13
	5
	14
	2
	19
	18
	10
	18
	19
	2
	18
	0
	10
	12
	7
	2
	1
	5
	13
	3
	0
	13
	0
	6
	12
	6
	9
	8
	6
	18
	1
	15
	7
	0
	10
	15
	8
	2
	3
	0
	11
	18
	5
	19
	10
	6
	15
	10
	1
	4
	17
	8
	11
	17
	7
	14
	19
	18
	18
	19
	10
	6
	5
	13
	1
	6
	9
	12
	1
	9
	3
	8
	13
	3
	6
	13
	12
	0
	2
	15
	18
	16
	0
	19
	2
	14
	5
	13
	7
	3
	13
	14
	3
	9
	1
	12
	9
	7
	12
	4
	8
	17
	11
	5
	6
	13
	12
	7
	18
	7
	1
	5
	11
	5
	5
	3
	11
	5
	3
	1
	4
	2
	7
	4
	10
	8
	5
	0
	2
	14
	15
	10
	6
	19
	5
	10
	15
	1
	2
	15
	14
	10
	4
	3
	16
	11
	18
	17
	4
	1
	10
	15
	6
	10
	11
	5
	17
	11
	8
	6
	9
	12
	1
	9
	3
	14
	16
	7
	5
	19
	5
	16
	4
	12
	2
	8
	4
	17
	8
	11
	17
	6
	14
	13
	6
	6
	10
	3
	0
	13
	8
	0
	7
	14
	3
	2
	14
	5
	3
	18
	11
	10
	6
	15
	10
	6
	12
	4
	10
	18
	19
	18
	1
	9
	8
	6
	13
	6
	18
	16
	3
	14
	6
	13
	5
	1
	9
	1
	5
	13
	6
	12
	2
	14
	4
	16
	18
	11
	17
	1
	18
	13
	0
	1
	9
	12
	5
	11
	2
	14
	18
	15
	6
	1
	3
	14
	18
	17
	0
	1
	6
	11
	3
	2
	8
	8
	4
	17
	1
	1
	18
	18
	12
	11
	6
	17
	11
	18
	16
	3
	8
	2
	4
	14
	17
	5
	0
	3
	4
	18
	10
	1
	6
	5
	9
	0
	0
	13
	5
	3
	13
	6
	12
	9
	7
	12
	4
	18
	16
	19
	18
	2
	12
	8
	4
	17
	1
	18
	10
	4
	3
	7
	16
	14
	6
	4
	14
	3
	13
	5
	1
	2
	14
	15
	2
	14
	11
	5
	17
	11
	14
	2
	7
	14
	17
	11
	6
	10
	18
	5
	2
	19
	18
	2
	19
	14
	18
	2
	18
	1
	13
	0
	0
	13
	12
	7
	6
	2
	8
	4
	6
	0
	16
	18
	7
	19
	18
	6
	1
	7
	15
	18
	16
	19
	0
	2
	3
	18
	10
	1
	4
	5
	17
	1
	14
	0
	3
